<instance format="XCSP3" type="CSP">
    <variables>
        <array id="x" size="[4]"> 1 2 3 </array>
    </variables>
    <constraints>
        <extension>
            <list> x[3] x[1] x[0] x[2] </list>
            <supports> (1,2,3,2)(2,*,1,2)(2,3,2,1)(3,1,2,3) </supports>
        </extension>
    </constraints>
</instance>
